130968
20,12,0,9,28,63,72,36,17,47,18,30,23,64,49,3,52,51,38,40,62,77,60,5,78,82,7,58,67,27,41,14,68,24,54,56,2,11,22,71,42,80,48,33,46,59,50,6,10,15,74,39,81,43,4,21,34,29,1,37,32,26,55,16,19,66,75,25,35,65,61,69,13,79,45,44,53,8,76,57,73,31,70